\Generated by Cardinal Operations

Minimize
   1612.680997593759 lambda_Route_3_TypeI 
   + 859.7139059012596 lambda_Route_5_TypeI 
   + 1284.258540948823 lambda_Route_7_TypeI 
   + 513.7353404234519 lambda_Route_9_TypeI 
   + 927.5796461760036 lambda_Route_11_TypeI 
   + 448.3570006144657 lambda_Route_13_TypeI 
   + 865.057223540732 lambda_Route_15_TypeI 
   + 1339.302803700493 lambda_Route_17_TypeI 
   + 695.3387663578093 lambda_Route_19_TypeI 
   + 727.8818585457395 lambda_Route_21_TypeI 
   + 693.333974358678 lambda_Route_23_TypeI 
   + 336.2915401850008 lambda_Route_25_TypeI 
   + 1006.071568030824 lambda_Route_27_TypeI 
   + 934.6186388040846 lambda_Route_29_TypeI 
   + 522.398315464359 lambda_Route_31_TypeI 
   + 293.4620929523948 lambda_Route_33_TypeI 
   + 496.5883607174055 lambda_Route_35_TypeI 
   + 1503.94813740368 lambda_Route_37_TypeI 
   + 972.2962511498232 lambda_Route_39_TypeI 
   + 680.391064021273 lambda_Route_41_TypeI 
   + 1051.768035262529 lambda_Route_43_TypeI 
   + 650.5628332451831 lambda_Route_45_TypeI 
   + 402.1243588742169 lambda_Route_47_TypeI 
   + 1093.376421915161 lambda_Route_49_TypeI 
   + 306.7572330035593 lambda_Route_51_TypeI 
   + 1036.827854564103 lambda_Route_53_TypeI 
   + 1182.791613091672 lambda_Route_55_TypeI 
   + 657.8024019414948 lambda_Route_57_TypeI 
   + 454.9637348185018 lambda_Route_59_TypeI 
   + 895.8415038387092 lambda_Route_61_TypeI 
   + 1258.464143311203 lambda_Route_63_TypeI 
   + 615.0186989027244 lambda_Route_65_TypeI 
   + 1049.35218110985 lambda_Route_67_TypeI 
   + 1130.021238738458 lambda_Route_69_TypeI 
   + 1350.851583261463 lambda_Route_71_TypeI 
   + 965.3703952369784 lambda_Route_73_TypeI 
   + 1300.124609412498 lambda_Route_75_TypeI 
   + 1189.113955851162 lambda_Route_77_TypeI 
   + 1131.600636267053 lambda_Route_79_TypeI 
   + 468.7216658103186 lambda_Route_81_TypeI 
   + 972.824752974553 lambda_Route_83_TypeI 
   + 1127.065215504409 lambda_Route_85_TypeI 
   + 1156.671085486276 lambda_Route_87_TypeI 
   + 819.1825193447429 lambda_Route_89_TypeI 
   + 1151.077755844495 lambda_Route_91_TypeI 
   + 1199.788314662216 lambda_Route_93_TypeI 
   + 676.8456249396903 lambda_Route_95_TypeI 
   + 762.988859682761 lambda_Route_97_TypeI 
   + 1295.753062894315 lambda_Route_99_TypeI 
   + 514.6688255567847 lambda_Route_101_TypeI 
   + 1108.227413485156 lambda_Route_2_TypeII 
   + 686.7022644494483 lambda_Route_4_TypeII 
   + 342.4616766880639 lambda_Route_6_TypeII 
   + 1320.734644052317 lambda_Route_8_TypeII 
   + 1311.576151048806 lambda_Route_10_TypeII 
   + 579.3927855954024 lambda_Route_12_TypeII 
   + 1252.686712630097 lambda_Route_14_TypeII 
   + 550.8284669477423 lambda_Route_16_TypeII 
   + 474.1307836451879 lambda_Route_18_TypeII 
   + 555.7841307558178 lambda_Route_20_TypeII 
   + 419.6093421266976 lambda_Route_22_TypeII 
   + 431.0452412450461 lambda_Route_24_TypeII 
   + 924.8156573069035 lambda_Route_26_TypeII 
   + 845.3283385762008 lambda_Route_28_TypeII 
   + 1505.68256946808 lambda_Route_30_TypeII 
   + 537.226209338301 lambda_Route_32_TypeII 
   + 679.0346088381652 lambda_Route_34_TypeII 
   + 535.1112033960792 lambda_Route_36_TypeII 
   + 1298.275779640058 lambda_Route_38_TypeII 
   + 869.4319984909688 lambda_Route_40_TypeII 
   + 733.3484846919641 lambda_Route_42_TypeII 
   + 1597.138691535585 lambda_Route_44_TypeII 
   + 1748.041189446061 lambda_Route_46_TypeII 
   + 1165.366895016329 lambda_Route_48_TypeII 
   + 1468.958814943428 lambda_Route_50_TypeII 
   + 1148.846377893929 lambda_Route_52_TypeII 
   + 684.8561892835604 lambda_Route_54_TypeII 
   + 1289.689885204967 lambda_Route_56_TypeII 
   + 963.8630608131012 lambda_Route_58_TypeII 
   + 838.0214794383256 lambda_Route_60_TypeII 
   + 579.3962374748389 lambda_Route_62_TypeII 
   + 857.4123861946479 lambda_Route_64_TypeII 
   + 1037.367822905646 lambda_Route_66_TypeII 
   + 882.7343881372244 lambda_Route_68_TypeII 
   + 1320.546856419718 lambda_Route_70_TypeII 
   + 1212.580718962659 lambda_Route_72_TypeII 
   + 804.3307777276709 lambda_Route_74_TypeII 
   + 539.6183836749819 lambda_Route_76_TypeII 
   + 837.2574275573792 lambda_Route_78_TypeII 
   + 312.4355933628561 lambda_Route_80_TypeII 
   + 961.6007487517884 lambda_Route_82_TypeII 
   + 1119.101425251527 lambda_Route_84_TypeII 
   + 608.276253029822 lambda_Route_86_TypeII 
   + 1040.676702919788 lambda_Route_88_TypeII 
   + 1278.852610741363 lambda_Route_90_TypeII 
   + 856.8710521426196 lambda_Route_92_TypeII 
   + 712.5307010929424 lambda_Route_94_TypeII 
   + 593.8787755089418 lambda_Route_96_TypeII 
   + 718.9464514134554 lambda_Route_98_TypeII 
   + 1288.475067667202 lambda_Route_100_TypeII 
   + 1720.570808623004 lambda_Extra_Route103_TypeI 
   + 1999.70898728783 lambda_Extra_Route104_TypeII 
Subject To
 lambda_Route_2_TypeII + lambda_Extra_Route104_TypeII = 1
 lambda_Route_3_TypeI + lambda_Extra_Route103_TypeI = 1
 lambda_Route_4_TypeII = 1
 lambda_Route_5_TypeI + lambda_Extra_Route103_TypeI = 1
 lambda_Route_6_TypeII = 1
 lambda_Route_7_TypeI + lambda_Extra_Route103_TypeI = 1
 lambda_Route_8_TypeII + lambda_Extra_Route104_TypeII = 1
 lambda_Route_9_TypeI = 1
 lambda_Route_10_TypeII + lambda_Extra_Route104_TypeII = 1
 lambda_Route_11_TypeI = 1
 lambda_Route_12_TypeII = 1
 lambda_Route_13_TypeI = 1
 lambda_Route_14_TypeII + lambda_Extra_Route104_TypeII = 1
 lambda_Route_15_TypeI + lambda_Extra_Route103_TypeI = 1
 lambda_Route_16_TypeII + lambda_Extra_Route104_TypeII = 1
 lambda_Route_17_TypeI = 1
 lambda_Route_18_TypeII = 1
 lambda_Route_19_TypeI = 1
 lambda_Route_20_TypeII = 1
 lambda_Route_21_TypeI = 1
 lambda_Route_22_TypeII + lambda_Extra_Route104_TypeII = 1
 lambda_Route_23_TypeI = 1
 lambda_Route_24_TypeII = 1
 lambda_Route_25_TypeI = 1
 lambda_Route_26_TypeII = 1
 lambda_Route_27_TypeI = 1
 lambda_Route_28_TypeII = 1
 lambda_Route_29_TypeI = 1
 lambda_Route_30_TypeII = 1
 lambda_Route_31_TypeI = 1
 lambda_Route_32_TypeII = 1
 lambda_Route_33_TypeI = 1
 lambda_Route_34_TypeII = 1
 lambda_Route_35_TypeI = 1
 lambda_Route_36_TypeII = 1
 lambda_Route_37_TypeI = 1
 lambda_Route_38_TypeII = 1
 lambda_Route_39_TypeI = 1
 lambda_Route_40_TypeII = 1
 lambda_Route_41_TypeI = 1
 lambda_Route_42_TypeII = 1
 lambda_Route_43_TypeI = 1
 lambda_Route_44_TypeII = 1
 lambda_Route_45_TypeI = 1
 lambda_Route_46_TypeII = 1
 lambda_Route_47_TypeI = 1
 lambda_Route_48_TypeII = 1
 lambda_Route_49_TypeI = 1
 lambda_Route_50_TypeII = 1
 lambda_Route_51_TypeI = 1
 lambda_Route_52_TypeII = 1
 lambda_Route_53_TypeI = 1
 lambda_Route_54_TypeII = 1
 lambda_Route_55_TypeI = 1
 lambda_Route_56_TypeII = 1
 lambda_Route_57_TypeI = 1
 lambda_Route_58_TypeII = 1
 lambda_Route_59_TypeI = 1
 lambda_Route_60_TypeII = 1
 lambda_Route_61_TypeI = 1
 lambda_Route_62_TypeII = 1
 lambda_Route_63_TypeI = 1
 lambda_Route_64_TypeII = 1
 lambda_Route_65_TypeI = 1
 lambda_Route_66_TypeII = 1
 lambda_Route_67_TypeI = 1
 lambda_Route_68_TypeII = 1
 lambda_Route_69_TypeI = 1
 lambda_Route_70_TypeII = 1
 lambda_Route_71_TypeI = 1
 lambda_Route_72_TypeII = 1
 lambda_Route_73_TypeI = 1
 lambda_Route_74_TypeII = 1
 lambda_Route_75_TypeI = 1
 lambda_Route_76_TypeII = 1
 lambda_Route_77_TypeI = 1
 lambda_Route_78_TypeII = 1
 lambda_Route_79_TypeI = 1
 lambda_Route_80_TypeII = 1
 lambda_Route_81_TypeI = 1
 lambda_Route_82_TypeII = 1
 lambda_Route_83_TypeI = 1
 lambda_Route_84_TypeII = 1
 lambda_Route_85_TypeI = 1
 lambda_Route_86_TypeII = 1
 lambda_Route_87_TypeI = 1
 lambda_Route_88_TypeII = 1
 lambda_Route_89_TypeI = 1
 lambda_Route_90_TypeII = 1
 lambda_Route_91_TypeI = 1
 lambda_Route_92_TypeII = 1
 lambda_Route_93_TypeI = 1
 lambda_Route_94_TypeII = 1
 lambda_Route_95_TypeI = 1
 lambda_Route_96_TypeII = 1
 lambda_Route_97_TypeI = 1
 lambda_Route_98_TypeII = 1
 lambda_Route_99_TypeI = 1
 lambda_Route_100_TypeII = 1
 lambda_Route_101_TypeI = 1
Bounds
 lambda_Route_3_TypeI <= 1
 lambda_Route_5_TypeI <= 1
 lambda_Route_7_TypeI <= 1
 lambda_Route_9_TypeI <= 1
 lambda_Route_11_TypeI <= 1
 lambda_Route_13_TypeI <= 1
 lambda_Route_15_TypeI <= 1
 lambda_Route_17_TypeI <= 1
 lambda_Route_19_TypeI <= 1
 lambda_Route_21_TypeI <= 1
 lambda_Route_23_TypeI <= 1
 lambda_Route_25_TypeI <= 1
 lambda_Route_27_TypeI <= 1
 lambda_Route_29_TypeI <= 1
 lambda_Route_31_TypeI <= 1
 lambda_Route_33_TypeI <= 1
 lambda_Route_35_TypeI <= 1
 lambda_Route_37_TypeI <= 1
 lambda_Route_39_TypeI <= 1
 lambda_Route_41_TypeI <= 1
 lambda_Route_43_TypeI <= 1
 lambda_Route_45_TypeI <= 1
 lambda_Route_47_TypeI <= 1
 lambda_Route_49_TypeI <= 1
 lambda_Route_51_TypeI <= 1
 lambda_Route_53_TypeI <= 1
 lambda_Route_55_TypeI <= 1
 lambda_Route_57_TypeI <= 1
 lambda_Route_59_TypeI <= 1
 lambda_Route_61_TypeI <= 1
 lambda_Route_63_TypeI <= 1
 lambda_Route_65_TypeI <= 1
 lambda_Route_67_TypeI <= 1
 lambda_Route_69_TypeI <= 1
 lambda_Route_71_TypeI <= 1
 lambda_Route_73_TypeI <= 1
 lambda_Route_75_TypeI <= 1
 lambda_Route_77_TypeI <= 1
 lambda_Route_79_TypeI <= 1
 lambda_Route_81_TypeI <= 1
 lambda_Route_83_TypeI <= 1
 lambda_Route_85_TypeI <= 1
 lambda_Route_87_TypeI <= 1
 lambda_Route_89_TypeI <= 1
 lambda_Route_91_TypeI <= 1
 lambda_Route_93_TypeI <= 1
 lambda_Route_95_TypeI <= 1
 lambda_Route_97_TypeI <= 1
 lambda_Route_99_TypeI <= 1
 lambda_Route_101_TypeI <= 1
 lambda_Route_2_TypeII <= 1
 lambda_Route_4_TypeII <= 1
 lambda_Route_6_TypeII <= 1
 lambda_Route_8_TypeII <= 1
 lambda_Route_10_TypeII <= 1
 lambda_Route_12_TypeII <= 1
 lambda_Route_14_TypeII <= 1
 lambda_Route_16_TypeII <= 1
 lambda_Route_18_TypeII <= 1
 lambda_Route_20_TypeII <= 1
 lambda_Route_22_TypeII <= 1
 lambda_Route_24_TypeII <= 1
 lambda_Route_26_TypeII <= 1
 lambda_Route_28_TypeII <= 1
 lambda_Route_30_TypeII <= 1
 lambda_Route_32_TypeII <= 1
 lambda_Route_34_TypeII <= 1
 lambda_Route_36_TypeII <= 1
 lambda_Route_38_TypeII <= 1
 lambda_Route_40_TypeII <= 1
 lambda_Route_42_TypeII <= 1
 lambda_Route_44_TypeII <= 1
 lambda_Route_46_TypeII <= 1
 lambda_Route_48_TypeII <= 1
 lambda_Route_50_TypeII <= 1
 lambda_Route_52_TypeII <= 1
 lambda_Route_54_TypeII <= 1
 lambda_Route_56_TypeII <= 1
 lambda_Route_58_TypeII <= 1
 lambda_Route_60_TypeII <= 1
 lambda_Route_62_TypeII <= 1
 lambda_Route_64_TypeII <= 1
 lambda_Route_66_TypeII <= 1
 lambda_Route_68_TypeII <= 1
 lambda_Route_70_TypeII <= 1
 lambda_Route_72_TypeII <= 1
 lambda_Route_74_TypeII <= 1
 lambda_Route_76_TypeII <= 1
 lambda_Route_78_TypeII <= 1
 lambda_Route_80_TypeII <= 1
 lambda_Route_82_TypeII <= 1
 lambda_Route_84_TypeII <= 1
 lambda_Route_86_TypeII <= 1
 lambda_Route_88_TypeII <= 1
 lambda_Route_90_TypeII <= 1
 lambda_Route_92_TypeII <= 1
 lambda_Route_94_TypeII <= 1
 lambda_Route_96_TypeII <= 1
 lambda_Route_98_TypeII <= 1
 lambda_Route_100_TypeII <= 1
 lambda_Extra_Route103_TypeI <= 1
 lambda_Extra_Route104_TypeII <= 1
END

